%%% static parameters %%%
timespan = 1;
Clients_N = [4000];
Demand_W = [15];
Lt0 = [4];
Lt1 = [4];
SS_ = [0.85];
DS_D = [20];
K = [200];
MA = [500];
HC = [0.05];
%%% dynamic parameters %%%
lost_ratio_sales_ret_th = 0.0008093460961290127;
lost_ratio_sales_ret_w = 39;
lost_ratio_sales_dis_th = 0.0003913530821093062;
lost_ratio_sales_dis_w = 16;
lost_ratio_sales_fac_th = 0.0006059476165076759;
lost_ratio_sales_fac_w = 100;
stock_customer_MA_mean_relative_th = 0.9597851047839271;
stock_customer_MA_mean_relative_w = 71;
stock_distributor_MA_mean_relative_th = 0.19806233659631212;
stock_distributor_MA_mean_relative_w = 26;
stock_retailer_MA_mean_relative_th = 0.2623753191805882;
stock_retailer_MA_mean_relative_w = 27;
stock_factory_MA_mean_relative_th = 0.3523915148730149;
stock_factory_MA_mean_relative_w = 13;
